16 5
85 71 64 134 68
5 5 4 2 5 2 4 5 4 2 2 3 3 1 4 5
24 16 14 29 22
13 9 9 13 13
10 7 6 10 10
5 13 7 6 10
10 6 7 10 9
13 5 13 12 9
11 8 7 11 11
12 6 10 12 10
12 7 9 12 10
3 5 5 2 3
6 13 6 7 11
9 3 7 8 6
5 6 9 4 2
12 5 13 11 7
4 8 1 4 7
3 11 5 4 9
7 1 7 7 4
